c colouring generated by benchmark framework
p edge 206 3540
v 1 9
v 2 24
v 3 0
v 4 4
v 5 14
v 6 20
v 7 29
v 8 5
v 9 16
v 10 6
v 11 1
v 12 19
v 13 8
v 14 11
v 15 2
v 16 3
v 17 20
v 18 12
v 19 9
v 20 7
v 21 27
v 22 4
v 23 3
v 24 0
v 25 16
v 26 24
v 27 13
v 28 5
v 29 2
v 30 1
v 31 8
v 32 28
v 33 21
v 34 21
v 35 1
v 36 7
v 37 11
v 38 10
v 39 21
v 40 14
v 41 25
v 42 4
v 43 30
v 44 27
v 45 12
v 46 11
v 47 10
v 48 18
v 49 16
v 50 13
v 51 15
v 52 19
v 53 25
v 54 10
v 55 7
v 56 22
v 57 18
v 58 4
v 59 22
v 60 17
v 61 23
v 62 10
v 63 10
v 64 25
v 65 10
v 66 10
v 67 18
v 68 10
v 69 6
v 70 10
v 71 10
v 72 22
v 73 13
v 74 23
v 75 7
v 76 7
v 77 7
v 78 7
v 79 14
v 80 25
v 81 15
v 82 7
v 83 23
v 84 17
v 85 15
v 86 6
v 87 7
v 88 15
v 89 7
v 90 17
v 91 21
v 92 5
v 93 0
v 94 7
v 95 12
v 96 7
v 97 10
v 98 5
v 99 25
v 100 28
v 101 20
v 102 17
v 103 17
v 104 22
v 105 17
v 106 28
v 107 26
v 108 24
v 109 3
v 110 5
v 111 28
v 112 23
v 113 17
v 114 17
v 115 16
v 116 23
v 117 26
v 118 23
v 119 30
v 120 22
v 121 17
v 122 22
v 123 28
v 124 27
v 125 10
v 126 21
v 127 23
v 128 18
v 129 27
v 130 21
v 131 17
v 132 15
v 133 12
v 134 22
v 135 10
v 136 17
v 137 15
v 138 23
v 139 14
v 140 11
v 141 22
v 142 28
v 143 22
v 144 22
v 145 15
v 146 29
v 147 26
v 148 15
v 149 17
v 150 2
v 151 28
v 152 19
v 153 1
v 154 23
v 155 13
v 156 13
v 157 22
v 158 26
v 159 22
v 160 22
v 161 18
v 162 21
v 163 21
v 164 22
v 165 21
v 166 21
v 167 21
v 168 22
v 169 22
v 170 26
v 171 26
v 172 26
v 173 28
v 174 27
v 175 26
v 176 22
v 177 22
v 178 12
v 179 22
v 180 12
v 181 12
v 182 7
v 183 3
v 184 21
v 185 22
v 186 21
v 187 26
v 188 18
v 189 27
v 190 27
v 191 28
v 192 27
v 193 27
v 194 28
v 195 26
v 196 22
v 197 22
v 198 14
v 199 27
v 200 21
v 201 21
v 202 26
v 203 18
v 204 0
v 205 22
v 206 17
